
        $ From http://www.csplib.org/Problems/prob009/data/helmut.pdf
        $ Problem number 184
        $ Sequence length : 25
        language ESSENCE' 1.0
        letting sizemaster be 556
        letting sizes be sequence(1,5,7,8,9,10,12,14,20,27,31,43,47,50,74,93,97,121,125,139,143,153,167,264,292)
        